(set-logic QF_NRA)
(set-info :source |Benchmarks generated from hycomp (https://es-static.fbk.eu/tools/hycomp/). BMC instances of non-linear hybrid automata taken from: Alessandro Cimatti, Sergio Mover, Stefano Tonetta, A quantifier-free SMT encoding of non-linear hybrid automata, FMCAD 2012 and Alessandro Cimatti, Sergio Mover, Stefano Tonetta, Quantier-free encoding of invariants for Hybrid Systems, Formal Methods in System Design. This instance solves a BMC problem of depth 2 and uses the quantifier free encoding with equivalences and lemmas encoding. Contacts: Sergio Mover (mover@fbk.eu), Stefano Tonetta (tonettas@fbk.eu), Alessandro Cimatti (cimatti@fbk.eu).|)
(set-info :smt-lib-version 2.0)
(set-info :category "industrial")
(set-info :status unsat)
;; MathSAT API call trace
;; generated on Mon Mar 19 10:47:26 2012
(declare-fun b.event_is_timed__AT2 () Bool)
(declare-fun b.counter.1__AT1 () Bool)
(declare-fun b.counter.2__AT1 () Bool)
(declare-fun b.event_is_timed__AT0 () Bool)
(declare-fun b.counter.3__AT1 () Bool)
(declare-fun b.bool_atom__AT0 () Bool)
(declare-fun b.bool_atom__AT2 () Bool)
(declare-fun b.x__AT0 () Real)
(declare-fun b.y__AT2 () Real)
(declare-fun b.time__AT2 () Real)
(declare-fun b.counter.0__AT2 () Bool)
(declare-fun b.delta__AT2 () Real)
(declare-fun b.delta__AT1 () Real)
(declare-fun b.speed_y__AT1 () Real)
(declare-fun b.counter.1__AT2 () Bool)
(declare-fun b.x__AT2 () Real)
(declare-fun b.time__AT1 () Real)
(declare-fun b.EVENT.0__AT2 () Bool)
(declare-fun b.EVENT.0__AT1 () Bool)
(declare-fun b.counter.2__AT2 () Bool)
(declare-fun b.time__AT0 () Real)
(declare-fun b.EVENT.1__AT2 () Bool)
(declare-fun b.EVENT.1__AT1 () Bool)
(declare-fun b.counter.3__AT2 () Bool)
(declare-fun b.delta__AT0 () Real)
(declare-fun b.EVENT.1__AT0 () Bool)
(declare-fun b.speed_y__AT2 () Real)
(declare-fun b.y__AT0 () Real)
(declare-fun b.counter.0__AT0 () Bool)
(declare-fun b.EVENT.0__AT0 () Bool)
(declare-fun b.counter.3__AT0 () Bool)
(declare-fun b.counter.1__AT0 () Bool)
(declare-fun b.event_is_timed__AT1 () Bool)
(declare-fun b.bool_atom__AT1 () Bool)
(declare-fun b.g__AT0 () Real)
(declare-fun b.speed_y__AT0 () Real)
(declare-fun b.x__AT1 () Real)
(declare-fun b.y__AT1 () Real)
(declare-fun b.counter.2__AT0 () Bool)
(declare-fun b.counter.0__AT1 () Bool)
(assert (let ((.def_66 (* (- 1.0) b.g__AT0)))
(let ((.def_69 (* (/ 1 2) .def_66)))
(let ((.def_81 (* 2.0 .def_69)))
(let ((.def_513 (* .def_81 b.delta__AT2)))
(let ((.def_514 (+ b.speed_y__AT2 .def_513)))
(let ((.def_531 (<= .def_514 0.0 )))
(let ((.def_532 (not .def_531)))
(let ((.def_529 (<= b.speed_y__AT2 0.0 )))
(let ((.def_552 (or .def_529 .def_532)))
(let ((.def_517 (<= 0.0 b.speed_y__AT2)))
(let ((.def_518 (not .def_517)))
(let ((.def_515 (<= 0.0 .def_514)))
(let ((.def_551 (or .def_515 .def_518)))
(let ((.def_553 (and .def_551 .def_552)))
(let ((.def_121 (<= 0.0 b.g__AT0)))
(let ((.def_554 (or .def_121 .def_553)))
(let ((.def_516 (not .def_515)))
(let ((.def_548 (or .def_516 .def_517)))
(let ((.def_530 (not .def_529)))
(let ((.def_547 (or .def_530 .def_531)))
(let ((.def_549 (and .def_547 .def_548)))
(let ((.def_116 (<= b.g__AT0 0.0 )))
(let ((.def_550 (or .def_116 .def_549)))
(let ((.def_555 (and .def_550 .def_554)))
(let ((.def_544 (and .def_529 .def_531)))
(let ((.def_543 (and .def_515 .def_517)))
(let ((.def_545 (or .def_543 .def_544)))
(let ((.def_504 (* b.speed_y__AT2 b.delta__AT2)))
(let ((.def_502 (* b.delta__AT2 b.delta__AT2)))
(let ((.def_503 (* .def_69 .def_502)))
(let ((.def_505 (+ .def_503 .def_504)))
(let ((.def_490 (* (- 1.0) b.x__AT2)))
(let ((.def_491 (* b.x__AT2 .def_490)))
(let ((.def_506 (* (- 1.0) .def_491)))
(let ((.def_509 (+ .def_506 .def_505)))
(let ((.def_510 (+ b.y__AT2 .def_509)))
(let ((.def_523 (<= .def_510 0.0 )))
(let ((.def_537 (not .def_523)))
(let ((.def_521 (<= b.y__AT2 .def_491)))
(let ((.def_538 (or .def_521 .def_537)))
(let ((.def_492 (<= .def_491 b.y__AT2)))
(let ((.def_535 (not .def_492)))
(let ((.def_511 (<= 0.0 .def_510)))
(let ((.def_536 (or .def_511 .def_535)))
(let ((.def_539 (and .def_536 .def_538)))
(let ((.def_533 (or .def_530 .def_532)))
(let ((.def_534 (not .def_533)))
(let ((.def_540 (or .def_534 .def_539)))
(let ((.def_525 (not .def_511)))
(let ((.def_526 (or .def_492 .def_525)))
(let ((.def_522 (not .def_521)))
(let ((.def_524 (or .def_522 .def_523)))
(let ((.def_527 (and .def_524 .def_526)))
(let ((.def_519 (or .def_516 .def_518)))
(let ((.def_520 (not .def_519)))
(let ((.def_528 (or .def_520 .def_527)))
(let ((.def_541 (and .def_528 .def_540)))
(let ((.def_512 (and .def_492 .def_511)))
(let ((.def_542 (and .def_512 .def_541)))
(let ((.def_546 (and .def_542 .def_545)))
(let ((.def_556 (and .def_546 .def_555)))
(let ((.def_58 (<= b.g__AT0 10.0 )))
(let ((.def_57 (<= 8.0 b.g__AT0)))
(let ((.def_59 (and .def_57 .def_58)))
(let ((.def_557 (and .def_59 .def_556)))
(let ((.def_197 (not b.counter.0__AT1)))
(let ((.def_496 (or b.counter.1__AT1 .def_197)))
(let ((.def_192 (not b.counter.2__AT1)))
(let ((.def_497 (or .def_192 .def_496)))
(let ((.def_498 (or b.counter.3__AT1 .def_497)))
(let ((.def_493 (and .def_59 .def_492)))
(let ((.def_487 (not b.EVENT.0__AT2)))
(let ((.def_485 (not b.EVENT.1__AT2)))
(let ((.def_488 (or .def_485 .def_487)))
(let ((.def_399 (not b.counter.1__AT2)))
(let ((.def_4 (not b.counter.0__AT2)))
(let ((.def_478 (or .def_4 .def_399)))
(let ((.def_482 (or b.counter.3__AT2 .def_478)))
(let ((.def_479 (or b.counter.2__AT2 .def_478)))
(let ((.def_8 (not b.counter.2__AT2)))
(let ((.def_477 (or .def_4 .def_8)))
(let ((.def_480 (and .def_477 .def_479)))
(let ((.def_416 (not b.counter.3__AT2)))
(let ((.def_481 (or .def_416 .def_480)))
(let ((.def_483 (and .def_481 .def_482)))
(let ((.def_489 (and .def_483 .def_488)))
(let ((.def_494 (and .def_489 .def_493)))
(let ((.def_472 (<= 0.0 b.delta__AT1)))
(let ((.def_276 (not b.EVENT.0__AT1)))
(let ((.def_274 (not b.EVENT.1__AT1)))
(let ((.def_348 (and .def_274 .def_276)))
(let ((.def_350 (not .def_348)))
(let ((.def_473 (or .def_350 .def_472)))
(let ((.def_474 (or b.EVENT.1__AT1 .def_473)))
(let ((.def_385 (= b.bool_atom__AT1 b.bool_atom__AT2)))
(let ((.def_381 (= b.counter.0__AT2 b.counter.0__AT1)))
(let ((.def_379 (= b.counter.1__AT2 b.counter.1__AT1)))
(let ((.def_377 (= b.counter.2__AT2 b.counter.2__AT1)))
(let ((.def_376 (= b.counter.3__AT2 b.counter.3__AT1)))
(let ((.def_378 (and .def_376 .def_377)))
(let ((.def_380 (and .def_378 .def_379)))
(let ((.def_382 (and .def_380 .def_381)))
(let ((.def_468 (and .def_382 .def_385)))
(let ((.def_469 (or .def_350 .def_468)))
(let ((.def_470 (or b.EVENT.1__AT1 .def_469)))
(let ((.def_457 (* .def_66 b.delta__AT1)))
(let ((.def_458 (* (- 1.0) b.speed_y__AT2)))
(let ((.def_461 (+ .def_458 .def_457)))
(let ((.def_462 (+ b.speed_y__AT1 .def_461)))
(let ((.def_463 (= .def_462 0.0 )))
(let ((.def_448 (* (- 1.0) b.y__AT2)))
(let ((.def_293 (* b.speed_y__AT1 b.delta__AT1)))
(let ((.def_452 (+ .def_293 .def_448)))
(let ((.def_291 (* b.delta__AT1 b.delta__AT1)))
(let ((.def_292 (* .def_69 .def_291)))
(let ((.def_453 (+ .def_292 .def_452)))
(let ((.def_454 (+ b.y__AT1 .def_453)))
(let ((.def_455 (= .def_454 0.0 )))
(let ((.def_368 (= b.x__AT1 b.x__AT2)))
(let ((.def_456 (and .def_368 .def_455)))
(let ((.def_464 (and .def_456 .def_463)))
(let ((.def_465 (or .def_350 .def_464)))
(let ((.def_371 (= b.y__AT1 b.y__AT2)))
(let ((.def_443 (and .def_368 .def_371)))
(let ((.def_374 (= b.speed_y__AT1 b.speed_y__AT2)))
(let ((.def_444 (and .def_374 .def_443)))
(let ((.def_440 (= b.delta__AT1 0.0 )))
(let ((.def_441 (and .def_348 .def_440)))
(let ((.def_442 (not .def_441)))
(let ((.def_445 (or .def_442 .def_444)))
(let ((.def_446 (or b.EVENT.1__AT1 .def_445)))
(let ((.def_433 (and .def_374 .def_382)))
(let ((.def_434 (or b.bool_atom__AT1 .def_433)))
(let ((.def_408 (or .def_4 b.counter.0__AT1)))
(let ((.def_407 (or b.counter.0__AT2 .def_197)))
(let ((.def_409 (and .def_407 .def_408)))
(let ((.def_410 (and .def_399 .def_409)))
(let ((.def_411 (or b.counter.1__AT1 .def_410)))
(let ((.def_187 (not b.counter.1__AT1)))
(let ((.def_406 (or b.counter.1__AT2 .def_187)))
(let ((.def_412 (and .def_406 .def_411)))
(let ((.def_424 (and .def_8 .def_412)))
(let ((.def_425 (or b.counter.2__AT1 .def_424)))
(let ((.def_419 (and .def_197 .def_399)))
(let ((.def_420 (or b.counter.1__AT1 .def_419)))
(let ((.def_421 (and .def_406 .def_420)))
(let ((.def_422 (and b.counter.2__AT2 .def_421)))
(let ((.def_423 (or .def_192 .def_422)))
(let ((.def_426 (and .def_423 .def_425)))
(let ((.def_427 (and b.counter.3__AT2 .def_426)))
(let ((.def_428 (or b.counter.3__AT1 .def_427)))
(let ((.def_413 (and b.counter.2__AT2 .def_412)))
(let ((.def_414 (or b.counter.2__AT1 .def_413)))
(let ((.def_402 (or b.counter.1__AT2 b.counter.1__AT1)))
(let ((.def_400 (and b.counter.0__AT2 .def_399)))
(let ((.def_401 (or .def_187 .def_400)))
(let ((.def_403 (and .def_401 .def_402)))
(let ((.def_404 (and .def_8 .def_403)))
(let ((.def_405 (or .def_192 .def_404)))
(let ((.def_415 (and .def_405 .def_414)))
(let ((.def_417 (and .def_415 .def_416)))
(let ((.def_206 (not b.counter.3__AT1)))
(let ((.def_418 (or .def_206 .def_417)))
(let ((.def_429 (and .def_418 .def_428)))
(let ((.def_396 (* b.speed_y__AT2 b.speed_y__AT2)))
(let ((.def_183 (* b.speed_y__AT1 b.speed_y__AT1)))
(let ((.def_397 (= .def_183 .def_396)))
(let ((.def_394 (+ b.speed_y__AT1 b.speed_y__AT2)))
(let ((.def_395 (= .def_394 0.0 )))
(let ((.def_398 (and .def_395 .def_397)))
(let ((.def_430 (and .def_398 .def_429)))
(let ((.def_393 (not b.bool_atom__AT1)))
(let ((.def_431 (or .def_393 .def_430)))
(let ((.def_279 (* (- 1.0) b.x__AT1)))
(let ((.def_280 (* b.x__AT1 .def_279)))
(let ((.def_390 (= b.y__AT1 .def_280)))
(let ((.def_306 (<= 0.0 b.speed_y__AT1)))
(let ((.def_307 (not .def_306)))
(let ((.def_391 (and .def_307 .def_390)))
(let ((.def_392 (= b.bool_atom__AT1 .def_391)))
(let ((.def_432 (and .def_392 .def_431)))
(let ((.def_435 (and .def_432 .def_434)))
(let ((.def_436 (and .def_368 .def_435)))
(let ((.def_437 (and .def_371 .def_436)))
(let ((.def_438 (or .def_348 .def_437)))
(let ((.def_439 (or b.EVENT.1__AT1 .def_438)))
(let ((.def_447 (and .def_439 .def_446)))
(let ((.def_466 (and .def_447 .def_465)))
(let ((.def_355 (= b.time__AT1 b.time__AT2)))
(let ((.def_369 (and .def_355 .def_368)))
(let ((.def_372 (and .def_369 .def_371)))
(let ((.def_375 (and .def_372 .def_374)))
(let ((.def_383 (and .def_375 .def_382)))
(let ((.def_386 (and .def_383 .def_385)))
(let ((.def_387 (or .def_274 .def_386)))
(let ((.def_358 (* (- 1.0) b.time__AT2)))
(let ((.def_361 (+ b.delta__AT1 .def_358)))
(let ((.def_362 (+ b.time__AT1 .def_361)))
(let ((.def_363 (= .def_362 0.0 )))
(let ((.def_364 (or .def_350 .def_363)))
(let ((.def_365 (or b.EVENT.1__AT1 .def_364)))
(let ((.def_356 (or .def_348 .def_355)))
(let ((.def_357 (or b.EVENT.1__AT1 .def_356)))
(let ((.def_366 (and .def_357 .def_365)))
(let ((.def_388 (and .def_366 .def_387)))
(let ((.def_352 (= .def_350 b.event_is_timed__AT2)))
(let ((.def_349 (= b.event_is_timed__AT1 .def_348)))
(let ((.def_353 (and .def_349 .def_352)))
(let ((.def_389 (and .def_353 .def_388)))
(let ((.def_467 (and .def_389 .def_466)))
(let ((.def_471 (and .def_467 .def_470)))
(let ((.def_475 (and .def_471 .def_474)))
(let ((.def_476 (and .def_274 .def_475)))
(let ((.def_495 (and .def_476 .def_494)))
(let ((.def_499 (and .def_495 .def_498)))
(let ((.def_302 (* .def_81 b.delta__AT1)))
(let ((.def_303 (+ b.speed_y__AT1 .def_302)))
(let ((.def_320 (<= .def_303 0.0 )))
(let ((.def_321 (not .def_320)))
(let ((.def_318 (<= b.speed_y__AT1 0.0 )))
(let ((.def_341 (or .def_318 .def_321)))
(let ((.def_304 (<= 0.0 .def_303)))
(let ((.def_340 (or .def_304 .def_307)))
(let ((.def_342 (and .def_340 .def_341)))
(let ((.def_343 (or .def_121 .def_342)))
(let ((.def_305 (not .def_304)))
(let ((.def_337 (or .def_305 .def_306)))
(let ((.def_319 (not .def_318)))
(let ((.def_336 (or .def_319 .def_320)))
(let ((.def_338 (and .def_336 .def_337)))
(let ((.def_339 (or .def_116 .def_338)))
(let ((.def_344 (and .def_339 .def_343)))
(let ((.def_333 (and .def_318 .def_320)))
(let ((.def_332 (and .def_304 .def_306)))
(let ((.def_334 (or .def_332 .def_333)))
(let ((.def_294 (+ .def_292 .def_293)))
(let ((.def_295 (* (- 1.0) .def_280)))
(let ((.def_298 (+ .def_295 .def_294)))
(let ((.def_299 (+ b.y__AT1 .def_298)))
(let ((.def_312 (<= .def_299 0.0 )))
(let ((.def_326 (not .def_312)))
(let ((.def_310 (<= b.y__AT1 .def_280)))
(let ((.def_327 (or .def_310 .def_326)))
(let ((.def_281 (<= .def_280 b.y__AT1)))
(let ((.def_324 (not .def_281)))
(let ((.def_300 (<= 0.0 .def_299)))
(let ((.def_325 (or .def_300 .def_324)))
(let ((.def_328 (and .def_325 .def_327)))
(let ((.def_322 (or .def_319 .def_321)))
(let ((.def_323 (not .def_322)))
(let ((.def_329 (or .def_323 .def_328)))
(let ((.def_314 (not .def_300)))
(let ((.def_315 (or .def_281 .def_314)))
(let ((.def_311 (not .def_310)))
(let ((.def_313 (or .def_311 .def_312)))
(let ((.def_316 (and .def_313 .def_315)))
(let ((.def_308 (or .def_305 .def_307)))
(let ((.def_309 (not .def_308)))
(let ((.def_317 (or .def_309 .def_316)))
(let ((.def_330 (and .def_317 .def_329)))
(let ((.def_301 (and .def_281 .def_300)))
(let ((.def_331 (and .def_301 .def_330)))
(let ((.def_335 (and .def_331 .def_334)))
(let ((.def_345 (and .def_335 .def_344)))
(let ((.def_346 (and .def_59 .def_345)))
(let ((.def_28 (not b.counter.0__AT0)))
(let ((.def_285 (or b.counter.1__AT0 .def_28)))
(let ((.def_31 (not b.counter.2__AT0)))
(let ((.def_286 (or .def_31 .def_285)))
(let ((.def_287 (or b.counter.3__AT0 .def_286)))
(let ((.def_282 (and .def_59 .def_281)))
(let ((.def_277 (or .def_274 .def_276)))
(let ((.def_267 (or .def_187 .def_197)))
(let ((.def_271 (or b.counter.3__AT1 .def_267)))
(let ((.def_268 (or b.counter.2__AT1 .def_267)))
(let ((.def_266 (or .def_192 .def_197)))
(let ((.def_269 (and .def_266 .def_268)))
(let ((.def_270 (or .def_206 .def_269)))
(let ((.def_272 (and .def_270 .def_271)))
(let ((.def_278 (and .def_272 .def_277)))
(let ((.def_283 (and .def_278 .def_282)))
(let ((.def_261 (<= 0.0 b.delta__AT0)))
(let ((.def_47 (not b.EVENT.0__AT0)))
(let ((.def_45 (not b.EVENT.1__AT0)))
(let ((.def_130 (and .def_45 .def_47)))
(let ((.def_132 (not .def_130)))
(let ((.def_262 (or .def_132 .def_261)))
(let ((.def_263 (or b.EVENT.1__AT0 .def_262)))
(let ((.def_172 (= b.bool_atom__AT0 b.bool_atom__AT1)))
(let ((.def_167 (= b.counter.0__AT0 b.counter.0__AT1)))
(let ((.def_164 (= b.counter.1__AT0 b.counter.1__AT1)))
(let ((.def_161 (= b.counter.2__AT0 b.counter.2__AT1)))
(let ((.def_159 (= b.counter.3__AT0 b.counter.3__AT1)))
(let ((.def_162 (and .def_159 .def_161)))
(let ((.def_165 (and .def_162 .def_164)))
(let ((.def_168 (and .def_165 .def_167)))
(let ((.def_257 (and .def_168 .def_172)))
(let ((.def_258 (or .def_132 .def_257)))
(let ((.def_259 (or b.EVENT.1__AT0 .def_258)))
(let ((.def_246 (* b.delta__AT0 .def_66)))
(let ((.def_247 (* (- 1.0) b.speed_y__AT1)))
(let ((.def_250 (+ .def_247 .def_246)))
(let ((.def_251 (+ b.speed_y__AT0 .def_250)))
(let ((.def_252 (= .def_251 0.0 )))
(let ((.def_238 (* (- 1.0) b.y__AT1)))
(let ((.def_72 (* b.delta__AT0 b.speed_y__AT0)))
(let ((.def_241 (+ .def_72 .def_238)))
(let ((.def_65 (* b.delta__AT0 b.delta__AT0)))
(let ((.def_70 (* .def_65 .def_69)))
(let ((.def_242 (+ .def_70 .def_241)))
(let ((.def_243 (+ b.y__AT0 .def_242)))
(let ((.def_244 (= .def_243 0.0 )))
(let ((.def_150 (= b.x__AT0 b.x__AT1)))
(let ((.def_245 (and .def_150 .def_244)))
(let ((.def_253 (and .def_245 .def_252)))
(let ((.def_254 (or .def_132 .def_253)))
(let ((.def_153 (= b.y__AT0 b.y__AT1)))
(let ((.def_233 (and .def_150 .def_153)))
(let ((.def_156 (= b.speed_y__AT0 b.speed_y__AT1)))
(let ((.def_234 (and .def_156 .def_233)))
(let ((.def_230 (= b.delta__AT0 0.0 )))
(let ((.def_231 (and .def_130 .def_230)))
(let ((.def_232 (not .def_231)))
(let ((.def_235 (or .def_232 .def_234)))
(let ((.def_236 (or b.EVENT.1__AT0 .def_235)))
(let ((.def_223 (and .def_156 .def_168)))
(let ((.def_224 (or b.bool_atom__AT0 .def_223)))
(let ((.def_198 (or b.counter.0__AT0 .def_197)))
(let ((.def_196 (or .def_28 b.counter.0__AT1)))
(let ((.def_199 (and .def_196 .def_198)))
(let ((.def_200 (and .def_187 .def_199)))
(let ((.def_201 (or b.counter.1__AT0 .def_200)))
(let ((.def_26 (not b.counter.1__AT0)))
(let ((.def_195 (or .def_26 b.counter.1__AT1)))
(let ((.def_202 (and .def_195 .def_201)))
(let ((.def_214 (and .def_192 .def_202)))
(let ((.def_215 (or b.counter.2__AT0 .def_214)))
(let ((.def_209 (and .def_28 .def_187)))
(let ((.def_210 (or b.counter.1__AT0 .def_209)))
(let ((.def_211 (and .def_195 .def_210)))
(let ((.def_212 (and b.counter.2__AT1 .def_211)))
(let ((.def_213 (or .def_31 .def_212)))
(let ((.def_216 (and .def_213 .def_215)))
(let ((.def_217 (and b.counter.3__AT1 .def_216)))
(let ((.def_218 (or b.counter.3__AT0 .def_217)))
(let ((.def_203 (and b.counter.2__AT1 .def_202)))
(let ((.def_204 (or b.counter.2__AT0 .def_203)))
(let ((.def_190 (or b.counter.1__AT0 b.counter.1__AT1)))
(let ((.def_188 (and b.counter.0__AT1 .def_187)))
(let ((.def_189 (or .def_26 .def_188)))
(let ((.def_191 (and .def_189 .def_190)))
(let ((.def_193 (and .def_191 .def_192)))
(let ((.def_194 (or .def_31 .def_193)))
(let ((.def_205 (and .def_194 .def_204)))
(let ((.def_207 (and .def_205 .def_206)))
(let ((.def_34 (not b.counter.3__AT0)))
(let ((.def_208 (or .def_34 .def_207)))
(let ((.def_219 (and .def_208 .def_218)))
(let ((.def_184 (* b.speed_y__AT0 b.speed_y__AT0)))
(let ((.def_185 (= .def_183 .def_184)))
(let ((.def_181 (+ b.speed_y__AT0 b.speed_y__AT1)))
(let ((.def_182 (= .def_181 0.0 )))
(let ((.def_186 (and .def_182 .def_185)))
(let ((.def_220 (and .def_186 .def_219)))
(let ((.def_180 (not b.bool_atom__AT0)))
(let ((.def_221 (or .def_180 .def_220)))
(let ((.def_52 (* (- 1.0) b.x__AT0)))
(let ((.def_53 (* b.x__AT0 .def_52)))
(let ((.def_177 (= b.y__AT0 .def_53)))
(let ((.def_86 (<= 0.0 b.speed_y__AT0)))
(let ((.def_87 (not .def_86)))
(let ((.def_178 (and .def_87 .def_177)))
(let ((.def_179 (= b.bool_atom__AT0 .def_178)))
(let ((.def_222 (and .def_179 .def_221)))
(let ((.def_225 (and .def_222 .def_224)))
(let ((.def_226 (and .def_150 .def_225)))
(let ((.def_227 (and .def_153 .def_226)))
(let ((.def_228 (or .def_130 .def_227)))
(let ((.def_229 (or b.EVENT.1__AT0 .def_228)))
(let ((.def_237 (and .def_229 .def_236)))
(let ((.def_255 (and .def_237 .def_254)))
(let ((.def_137 (= b.time__AT0 b.time__AT1)))
(let ((.def_151 (and .def_137 .def_150)))
(let ((.def_154 (and .def_151 .def_153)))
(let ((.def_157 (and .def_154 .def_156)))
(let ((.def_169 (and .def_157 .def_168)))
(let ((.def_173 (and .def_169 .def_172)))
(let ((.def_174 (or .def_45 .def_173)))
(let ((.def_140 (* (- 1.0) b.time__AT1)))
(let ((.def_143 (+ b.delta__AT0 .def_140)))
(let ((.def_144 (+ b.time__AT0 .def_143)))
(let ((.def_145 (= .def_144 0.0 )))
(let ((.def_146 (or .def_132 .def_145)))
(let ((.def_147 (or b.EVENT.1__AT0 .def_146)))
(let ((.def_138 (or .def_130 .def_137)))
(let ((.def_139 (or b.EVENT.1__AT0 .def_138)))
(let ((.def_148 (and .def_139 .def_147)))
(let ((.def_175 (and .def_148 .def_174)))
(let ((.def_134 (= .def_132 b.event_is_timed__AT1)))
(let ((.def_131 (= b.event_is_timed__AT0 .def_130)))
(let ((.def_135 (and .def_131 .def_134)))
(let ((.def_176 (and .def_135 .def_175)))
(let ((.def_256 (and .def_176 .def_255)))
(let ((.def_260 (and .def_256 .def_259)))
(let ((.def_264 (and .def_260 .def_263)))
(let ((.def_265 (and .def_45 .def_264)))
(let ((.def_284 (and .def_265 .def_283)))
(let ((.def_288 (and .def_284 .def_287)))
(let ((.def_82 (* b.delta__AT0 .def_81)))
(let ((.def_83 (+ b.speed_y__AT0 .def_82)))
(let ((.def_100 (<= .def_83 0.0 )))
(let ((.def_101 (not .def_100)))
(let ((.def_98 (<= b.speed_y__AT0 0.0 )))
(let ((.def_123 (or .def_98 .def_101)))
(let ((.def_84 (<= 0.0 .def_83)))
(let ((.def_122 (or .def_84 .def_87)))
(let ((.def_124 (and .def_122 .def_123)))
(let ((.def_125 (or .def_121 .def_124)))
(let ((.def_85 (not .def_84)))
(let ((.def_118 (or .def_85 .def_86)))
(let ((.def_99 (not .def_98)))
(let ((.def_117 (or .def_99 .def_100)))
(let ((.def_119 (and .def_117 .def_118)))
(let ((.def_120 (or .def_116 .def_119)))
(let ((.def_126 (and .def_120 .def_125)))
(let ((.def_113 (and .def_98 .def_100)))
(let ((.def_112 (and .def_84 .def_86)))
(let ((.def_114 (or .def_112 .def_113)))
(let ((.def_73 (+ .def_70 .def_72)))
(let ((.def_74 (* (- 1.0) .def_53)))
(let ((.def_77 (+ .def_74 .def_73)))
(let ((.def_78 (+ b.y__AT0 .def_77)))
(let ((.def_92 (<= .def_78 0.0 )))
(let ((.def_106 (not .def_92)))
(let ((.def_90 (<= b.y__AT0 .def_53)))
(let ((.def_107 (or .def_90 .def_106)))
(let ((.def_54 (<= .def_53 b.y__AT0)))
(let ((.def_104 (not .def_54)))
(let ((.def_79 (<= 0.0 .def_78)))
(let ((.def_105 (or .def_79 .def_104)))
(let ((.def_108 (and .def_105 .def_107)))
(let ((.def_102 (or .def_99 .def_101)))
(let ((.def_103 (not .def_102)))
(let ((.def_109 (or .def_103 .def_108)))
(let ((.def_94 (not .def_79)))
(let ((.def_95 (or .def_54 .def_94)))
(let ((.def_91 (not .def_90)))
(let ((.def_93 (or .def_91 .def_92)))
(let ((.def_96 (and .def_93 .def_95)))
(let ((.def_88 (or .def_85 .def_87)))
(let ((.def_89 (not .def_88)))
(let ((.def_97 (or .def_89 .def_96)))
(let ((.def_110 (and .def_97 .def_109)))
(let ((.def_80 (and .def_54 .def_79)))
(let ((.def_111 (and .def_80 .def_110)))
(let ((.def_115 (and .def_111 .def_114)))
(let ((.def_127 (and .def_115 .def_126)))
(let ((.def_128 (and .def_59 .def_127)))
(let ((.def_60 (and .def_54 .def_59)))
(let ((.def_48 (or .def_45 .def_47)))
(let ((.def_38 (or .def_26 .def_28)))
(let ((.def_42 (or b.counter.3__AT0 .def_38)))
(let ((.def_39 (or b.counter.2__AT0 .def_38)))
(let ((.def_37 (or .def_28 .def_31)))
(let ((.def_40 (and .def_37 .def_39)))
(let ((.def_41 (or .def_34 .def_40)))
(let ((.def_43 (and .def_41 .def_42)))
(let ((.def_49 (and .def_43 .def_48)))
(let ((.def_61 (and .def_49 .def_60)))
(let ((.def_29 (and .def_26 .def_28)))
(let ((.def_32 (and .def_29 .def_31)))
(let ((.def_35 (and .def_32 .def_34)))
(let ((.def_23 (= b.y__AT0 10.0 )))
(let ((.def_19 (= b.x__AT0 0.0 )))
(let ((.def_15 (= b.time__AT0 0.0 )))
(let ((.def_17 (and .def_15 b.event_is_timed__AT0)))
(let ((.def_20 (and .def_17 .def_19)))
(let ((.def_24 (and .def_20 .def_23)))
(let ((.def_36 (and .def_24 .def_35)))
(let ((.def_62 (and .def_36 .def_61)))
(let ((.def_6 (or .def_4 b.counter.1__AT2)))
(let ((.def_9 (or .def_6 .def_8)))
(let ((.def_11 (or .def_9 b.counter.3__AT2)))
(let ((.def_12 (not .def_11)))
(let ((.def_63 (and .def_12 .def_62)))
(let ((.def_129 (and .def_63 .def_128)))
(let ((.def_289 (and .def_129 .def_288)))
(let ((.def_347 (and .def_289 .def_346)))
(let ((.def_500 (and .def_347 .def_499)))
(let ((.def_558 (and .def_500 .def_557)))
.def_558)))))))))))))))))))))))))))))))))))))))))))))))))))))))))))))))))))))))))))))))))))))))))))))))))))))))))))))))))))))))))))))))))))))))))))))))))))))))))))))))))))))))))))))))))))))))))))))))))))))))))))))))))))))))))))))))))))))))))))))))))))))))))))))))))))))))))))))))))))))))))))))))))))))))))))))))))))))))))))))))))))))))))))))))))))))))))))))))))))))))))))))))))))))))))))))))))))))))))))))))))))))))))))))))))))))))))))))))))))))))))))))))))))))))))))))))))))))))))))))))))))))))))))
(check-sat)
(exit)
